144
100000
5838
18
25198
36270
45004
22013
48781
18563
24897
4866
23130
10739
31950
8098
4160
32470
47814
21318
21946
45961
3060
27788
18687
1924
27679
38254
1329
8934
10472
18541
13408
5964
2513
36086
79
14320
35590
31963
3805
5413
2815
36224
28353
32177
5911
42659
30006
8768
39800
6533
12880
18011
6796
32160
29563
9477
27446
8347
24418
21170
23437
5851
17133
17912
44665
35703
22383
41932
33659
49670
35424
12686
34487
35177
25986
33029
19945
3523
41826
32294
8456
6922
3459
38720
21256
27745
6506
17684
10087
12589
48222
34638
6090
7016
32961
112
40592
3876
24614
11715
24044
49025
14946
21179
4729
21581
46228
183
26591
6185
12536
24642
19673
1238
9153
45719
43462
15917
3948
39225
47095
17321
11448
24689
45239
4150
17825
6750
396
5543
28691
11657
13544
24371
6974
27182
3557
12689
9898
31926
14464
15936
11584
38528
